certificates/rado_a11_c166_N20.drat
-19 -20 0
d -15 -19 -20 0
-16 -20 0
d -10 -16 -20 0
-20 0
16 0
-6 0
-15 0
5 0
7 0
14 0
19 0
-17 0
0
